99 100
66 48 1
41 35 1
5 7 1
81 51 1
24 91 1
24 81 1
2 10 1
14 2 1
48 11 1
28 25 1
9 69 1
79 96 1
61 96 1
10 92 1
15 38 1
99 23 2
17 70 1
57 35 1
43 6 1
29 5 1
5 88 1
93 44 1
48 95 1
59 97 1
49 38 1
72 41 1
19 62 1
10 88 1
3 43 1
84 82 1
78 94 1
39 1 1
56 59 1
51 56 1
80 15 1
33 91 1
30 73 1
28 84 1
16 79 1
15 47 1
82 10 1
4 23 1
6 76 1
41 91 1
2 61 1
6 28 1
100 78 1
5 2 1
77 21 1
6 90 1
13 99 1
54 69 1
18 57 1
27 51 1
37 74 1
36 80 1
47 60 1
25 34 1
60 59 1
73 24 1
20 50 1
89 94 1
4 44 1
20 22 1
25 85 1
42 20 1
26 50 1
66 31 1
85 52 1
38 34 1
13 33 1
34 39 1
55 73 1
66 91 1
89 82 1
79 69 1
25 5 1
50 82 1
8 20 1
90 75 1
16 37 1
43 27 1
60 1 1
89 48 1
85 90 1
37 82 1
67 14 1
31 8 1
19 19 1
51 37 1
84 83 1
7 13 1
41 15 1
43 13 1
100 62 1
37 50 1
7 99 1
100 66 1
38 40 1
100 100 
100 100 
100 100 
100 100 
100 100 
100 100 
100 100 
100 100 
100 100 
100 100 
100 100 
100 100 
100 100 
100 100 
100 100 
100 100 
100 100 
100 100 
100 100 
100 100 
100 100 
100 100 
100 100 
100 100 
100 100 
100 100 
100 100 
100 100 
100 100 
100 100 
100 100 
100 100 
100 100 
100 100 
100 100 
100 100 
100 100 
100 100 
100 100 
100 100 
100 100 
100 100 
100 100 
100 100 
100 100 
100 100 
100 100 
100 100 
100 100 
100 100 
100 100 
100 100 
100 100 
100 100 
100 100 
100 100 
100 100 
100 100 
100 100 
100 100 
100 100 
100 100 
100 100 
100 100 
100 100 
100 100 
100 100 
100 100 
100 100 
100 100 
100 100 
100 100 
100 100 
100 100 
100 100 
100 100 
100 100 
100 100 
100 100 
100 100 
100 100 
100 100 
100 100 
100 100 
100 100 
100 100 
100 100 
100 100 
100 100 
100 100 
100 100 
100 100 
100 100 
100 100 
100 100 
100 100 
100 100 
100 100 
100 100 
100 100 
